Version identifier: 12.10.0.0 | 2019-11-26 | 843d4de
CPXPARAM_WorkMem                                 16384
CPXPARAM_MIP_Limits_TreeMemory                   24576
Tried aggregator 2 times.
MIP Presolve eliminated 30 rows and 0 columns.
MIP Presolve added 60 rows and 0 columns.
Aggregator did 60 substitutions.
Reduced MIP has 112 rows, 100 columns, and 420 nonzeros.
Reduced MIP has 100 binaries, 0 generals, 0 SOSs, and 0 indicators.
Presolve time = 0,00 sec. (0,85 ticks)
Found incumbent of value 237,000000 after 0,00 sec. (0,97 ticks)
Probing time = 0,00 sec. (0,28 ticks)
Tried aggregator 1 time.
Detecting symmetries...
Reduced MIP has 112 rows, 100 columns, and 420 nonzeros.
Reduced MIP has 100 binaries, 0 generals, 0 SOSs, and 0 indicators.
Presolve time = 0,00 sec. (0,34 ticks)
Probing time = 0,00 sec. (0,27 ticks)
Clique table members: 360.
MIP emphasis: balance optimality and feasibility.
MIP search method: dynamic search.
Parallel mode: deterministic, using up to 16 threads.
Root relaxation solution time = 0,00 sec. (0,25 ticks)

        Nodes                                         Cuts/
   Node  Left     Objective  IInf  Best Integer    Best Bound    ItCnt     Gap

*     0+    0                          237,0000        0,0000           100,00%
*     0+    0                          223,0000        0,0000           100,00%
*     0+    0                          215,0000        0,0000           100,00%
*     0+    0                          203,0000        0,0000           100,00%
      0     0      135,0000    44      203,0000      135,0000       46   33,50%
      0     0      135,0000    44      203,0000     Cuts: 129       83   33,50%
      0     0      135,0000    44      203,0000     Cuts: 131      116   33,50%
*     0+    0                          201,0000      135,0000            32,84%
*     0+    0                          200,0000      135,0000            32,50%
*     0+    0                          196,0000      135,0000            31,12%
*     0+    0                          190,0000      135,0000            28,95%
Detecting symmetries...
      0     2      135,0000    83      190,0000      185,0000      116    2,63%
Elapsed time = 0,05 sec. (13,38 ticks, tree = 0,02 MB, solutions = 8)

Clique cuts applied:  12
Cover cuts applied:  64
Zero-half cuts applied:  1

Root node processing (before b&c):
  Real time             =    0,04 sec. (13,33 ticks)
Parallel b&c, 16 threads:
  Real time             =    0,02 sec. (8,02 ticks)
  Sync time (average)   =    0,01 sec.
  Wait time (average)   =    0,00 sec.
                          ------------
Total (root+branch&cut) =    0,07 sec. (21,34 ticks)
